inputs/input.lp
Maximize
obj: 6x1+5x2+6x3+8x4
Subject To
c1: 3x1+2x2+2x3+2.5x4 <= 650
c2: x1+x2+2x3+3x4 <= 450
c3: 2x1+x2+2x3+x4 <= 500
c4: x2+x3 >= 100
Bounds
x1 >= 50
x2 >= 0
x3 >= 0
x4 <= 75
Generals
x1 x2 x3 x4
End
