inputs/input
Max Z = 6x1+5x2+6x3+8x4
3x1+2x2+2x3+2.5x4 <= 650
x1+x2+2x3+3x4 <= 450
2x1+x2+2x3+x4 <= 500
x1 >= 50
x2+x3 >= 100
x4 <= 75